29713 37135
14930 55948
50199 53118
10808 34180
13522 46625
15983 37776
22374 5732
24178 1245
50940 47114
15081 13962
5894 43446
23286 34937
28550 13745
62269 41727
62778 15506
51388 61384
27888 38710
35780 33715
6682 45117
45123 20485
47441 19569
17664 328
12302 49285
42919 13954
11092 17030
30078 25949
57139 6073
34413 48332
10102 20686
37526 43640
35168 45878
53874 32912
61217 3416
42850 32182
8173 58947
43493 44399
54979 32912
17332 58371
26763 49268
17397 56273
52732 62832
13938 41308
7896 63335
16670 53357
22969 65309
5521 63914
47989 41883
17478 39218
53985 18229
40292 61594
49975 20268
42901 45594
13993 64741
40532 37794
6383 16538
56084 21921
21326 33570
61810 57452
48251 843
34809 31935
64293 35639
24920 46364
63035 55969
21652 9066
25993 10688
33243 50295
37731 36419
9083 37170
21151 25066
62637 20850
21853 28594
54847 23020
7589 15165
40650 49780
26569 20014
64454 41292
